p cnf 168 1554
1 2 3 4 0
5 6 7 8 0
9 10 11 12 0
13 14 15 16 0
17 18 19 20 0
21 22 23 24 0
25 26 27 28 0
29 30 31 32 0
33 34 35 36 0
37 38 39 40 0
41 42 43 44 0
45 46 47 48 0
49 50 51 52 0
53 54 55 56 0
57 58 59 60 0
61 62 63 64 0
65 66 67 68 0
69 70 71 72 0
73 74 75 76 0
77 78 79 80 0
81 82 83 84 0
85 86 87 88 0
89 90 91 92 0
93 94 95 96 0
97 98 99 100 0
101 102 103 104 0
105 106 107 108 0
109 110 111 112 0
113 114 115 116 0
117 118 119 120 0
121 122 123 124 0
125 126 127 128 0
129 130 131 132 0
133 134 135 136 0
137 138 139 140 0
141 142 143 144 0
145 146 147 148 0
149 150 151 152 0
153 154 155 156 0
157 158 159 160 0
161 162 163 164 0
165 166 167 168 0
-2 -1 0
-3 -1 0
-3 -2 0
-4 -1 0
-4 -2 0
-4 -3 0
-6 -5 0
-7 -5 0
-7 -6 0
-8 -5 0
-8 -6 0
-8 -7 0
-10 -9 0
-11 -9 0
-11 -10 0
-12 -9 0
-12 -10 0
-12 -11 0
-14 -13 0
-15 -13 0
-15 -14 0
-16 -13 0
-16 -14 0
-16 -15 0
-18 -17 0
-19 -17 0
-19 -18 0
-20 -17 0
-20 -18 0
-20 -19 0
-22 -21 0
-23 -21 0
-23 -22 0
-24 -21 0
-24 -22 0
-24 -23 0
-26 -25 0
-27 -25 0
-27 -26 0
-28 -25 0
-28 -26 0
-28 -27 0
-30 -29 0
-31 -29 0
-31 -30 0
-32 -29 0
-32 -30 0
-32 -31 0
-34 -33 0
-35 -33 0
-35 -34 0
-36 -33 0
-36 -34 0
-36 -35 0
-38 -37 0
-39 -37 0
-39 -38 0
-40 -37 0
-40 -38 0
-40 -39 0
-42 -41 0
-43 -41 0
-43 -42 0
-44 -41 0
-44 -42 0
-44 -43 0
-46 -45 0
-47 -45 0
-47 -46 0
-48 -45 0
-48 -46 0
-48 -47 0
-50 -49 0
-51 -49 0
-51 -50 0
-52 -49 0
-52 -50 0
-52 -51 0
-54 -53 0
-55 -53 0
-55 -54 0
-56 -53 0
-56 -54 0
-56 -55 0
-58 -57 0
-59 -57 0
-59 -58 0
-60 -57 0
-60 -58 0
-60 -59 0
-62 -61 0
-63 -61 0
-63 -62 0
-64 -61 0
-64 -62 0
-64 -63 0
-66 -65 0
-67 -65 0
-67 -66 0
-68 -65 0
-68 -66 0
-68 -67 0
-70 -69 0
-71 -69 0
-71 -70 0
-72 -69 0
-72 -70 0
-72 -71 0
-74 -73 0
-75 -73 0
-75 -74 0
-76 -73 0
-76 -74 0
-76 -75 0
-78 -77 0
-79 -77 0
-79 -78 0
-80 -77 0
-80 -78 0
-80 -79 0
-82 -81 0
-83 -81 0
-83 -82 0
-84 -81 0
-84 -82 0
-84 -83 0
-86 -85 0
-87 -85 0
-87 -86 0
-88 -85 0
-88 -86 0
-88 -87 0
-90 -89 0
-91 -89 0
-91 -90 0
-92 -89 0
-92 -90 0
-92 -91 0
-94 -93 0
-95 -93 0
-95 -94 0
-96 -93 0
-96 -94 0
-96 -95 0
-98 -97 0
-99 -97 0
-99 -98 0
-100 -97 0
-100 -98 0
-100 -99 0
-102 -101 0
-103 -101 0
-103 -102 0
-104 -101 0
-104 -102 0
-104 -103 0
-106 -105 0
-107 -105 0
-107 -106 0
-108 -105 0
-108 -106 0
-108 -107 0
-110 -109 0
-111 -109 0
-111 -110 0
-112 -109 0
-112 -110 0
-112 -111 0
-114 -113 0
-115 -113 0
-115 -114 0
-116 -113 0
-116 -114 0
-116 -115 0
-118 -117 0
-119 -117 0
-119 -118 0
-120 -117 0
-120 -118 0
-120 -119 0
-122 -121 0
-123 -121 0
-123 -122 0
-124 -121 0
-124 -122 0
-124 -123 0
-126 -125 0
-127 -125 0
-127 -126 0
-128 -125 0
-128 -126 0
-128 -127 0
-130 -129 0
-131 -129 0
-131 -130 0
-132 -129 0
-132 -130 0
-132 -131 0
-134 -133 0
-135 -133 0
-135 -134 0
-136 -133 0
-136 -134 0
-136 -135 0
-138 -137 0
-139 -137 0
-139 -138 0
-140 -137 0
-140 -138 0
-140 -139 0
-142 -141 0
-143 -141 0
-143 -142 0
-144 -141 0
-144 -142 0
-144 -143 0
-146 -145 0
-147 -145 0
-147 -146 0
-148 -145 0
-148 -146 0
-148 -147 0
-150 -149 0
-151 -149 0
-151 -150 0
-152 -149 0
-152 -150 0
-152 -151 0
-154 -153 0
-155 -153 0
-155 -154 0
-156 -153 0
-156 -154 0
-156 -155 0
-158 -157 0
-159 -157 0
-159 -158 0
-160 -157 0
-160 -158 0
-160 -159 0
-162 -161 0
-163 -161 0
-163 -162 0
-164 -161 0
-164 -162 0
-164 -163 0
-166 -165 0
-167 -165 0
-167 -166 0
-168 -165 0
-168 -166 0
-168 -167 0
-29 -25 -5 -1 0
-30 -26 -6 -2 0
-31 -27 -7 -3 0
-32 -28 -8 -4 0
-33 -25 -9 -1 0
-34 -26 -10 -2 0
-35 -27 -11 -3 0
-36 -28 -12 -4 0
-33 -29 -9 -5 0
-34 -30 -10 -6 0
-35 -31 -11 -7 0
-36 -32 -12 -8 0
-37 -25 -13 -1 0
-38 -26 -14 -2 0
-39 -27 -15 -3 0
-40 -28 -16 -4 0
-37 -29 -13 -5 0
-38 -30 -14 -6 0
-39 -31 -15 -7 0
-40 -32 -16 -8 0
-37 -33 -13 -9 0
-38 -34 -14 -10 0
-39 -35 -15 -11 0
-40 -36 -16 -12 0
-41 -25 -17 -1 0
-42 -26 -18 -2 0
-43 -27 -19 -3 0
-44 -28 -20 -4 0
-41 -29 -17 -5 0
-42 -30 -18 -6 0
-43 -31 -19 -7 0
-44 -32 -20 -8 0
-41 -33 -17 -9 0
-42 -34 -18 -10 0
-43 -35 -19 -11 0
-44 -36 -20 -12 0
-41 -37 -17 -13 0
-42 -38 -18 -14 0
-43 -39 -19 -15 0
-44 -40 -20 -16 0
-45 -25 -21 -1 0
-46 -26 -22 -2 0
-47 -27 -23 -3 0
-48 -28 -24 -4 0
-45 -29 -21 -5 0
-46 -30 -22 -6 0
-47 -31 -23 -7 0
-48 -32 -24 -8 0
-45 -33 -21 -9 0
-46 -34 -22 -10 0
-47 -35 -23 -11 0
-48 -36 -24 -12 0
-45 -37 -21 -13 0
-46 -38 -22 -14 0
-47 -39 -23 -15 0
-48 -40 -24 -16 0
-45 -41 -21 -17 0
-46 -42 -22 -18 0
-47 -43 -23 -19 0
-48 -44 -24 -20 0
-53 -49 -5 -1 0
-54 -50 -6 -2 0
-55 -51 -7 -3 0
-56 -52 -8 -4 0
-57 -49 -9 -1 0
-58 -50 -10 -2 0
-59 -51 -11 -3 0
-60 -52 -12 -4 0
-57 -53 -9 -5 0
-58 -54 -10 -6 0
-59 -55 -11 -7 0
-60 -56 -12 -8 0
-61 -49 -13 -1 0
-62 -50 -14 -2 0
-63 -51 -15 -3 0
-64 -52 -16 -4 0
-61 -53 -13 -5 0
-62 -54 -14 -6 0
-63 -55 -15 -7 0
-64 -56 -16 -8 0
-61 -57 -13 -9 0
-62 -58 -14 -10 0
-63 -59 -15 -11 0
-64 -60 -16 -12 0
-65 -49 -17 -1 0
-66 -50 -18 -2 0
-67 -51 -19 -3 0
-68 -52 -20 -4 0
-65 -53 -17 -5 0
-66 -54 -18 -6 0
-67 -55 -19 -7 0
-68 -56 -20 -8 0
-65 -57 -17 -9 0
-66 -58 -18 -10 0
-67 -59 -19 -11 0
-68 -60 -20 -12 0
-65 -61 -17 -13 0
-66 -62 -18 -14 0
-67 -63 -19 -15 0
-68 -64 -20 -16 0
-69 -49 -21 -1 0
-70 -50 -22 -2 0
-71 -51 -23 -3 0
-72 -52 -24 -4 0
-69 -53 -21 -5 0
-70 -54 -22 -6 0
-71 -55 -23 -7 0
-72 -56 -24 -8 0
-69 -57 -21 -9 0
-70 -58 -22 -10 0
-71 -59 -23 -11 0
-72 -60 -24 -12 0
-69 -61 -21 -13 0
-70 -62 -22 -14 0
-71 -63 -23 -15 0
-72 -64 -24 -16 0
-69 -65 -21 -17 0
-70 -66 -22 -18 0
-71 -67 -23 -19 0
-72 -68 -24 -20 0
-53 -49 -29 -25 0
-54 -50 -30 -26 0
-55 -51 -31 -27 0
-56 -52 -32 -28 0
-57 -49 -33 -25 0
-58 -50 -34 -26 0
-59 -51 -35 -27 0
-60 -52 -36 -28 0
-57 -53 -33 -29 0
-58 -54 -34 -30 0
-59 -55 -35 -31 0
-60 -56 -36 -32 0
-61 -49 -37 -25 0
-62 -50 -38 -26 0
-63 -51 -39 -27 0
-64 -52 -40 -28 0
-61 -53 -37 -29 0
-62 -54 -38 -30 0
-63 -55 -39 -31 0
-64 -56 -40 -32 0
-61 -57 -37 -33 0
-62 -58 -38 -34 0
-63 -59 -39 -35 0
-64 -60 -40 -36 0
-65 -49 -41 -25 0
-66 -50 -42 -26 0
-67 -51 -43 -27 0
-68 -52 -44 -28 0
-65 -53 -41 -29 0
-66 -54 -42 -30 0
-67 -55 -43 -31 0
-68 -56 -44 -32 0
-65 -57 -41 -33 0
-66 -58 -42 -34 0
-67 -59 -43 -35 0
-68 -60 -44 -36 0
-65 -61 -41 -37 0
-66 -62 -42 -38 0
-67 -63 -43 -39 0
-68 -64 -44 -40 0
-69 -49 -45 -25 0
-70 -50 -46 -26 0
-71 -51 -47 -27 0
-72 -52 -48 -28 0
-69 -53 -45 -29 0
-70 -54 -46 -30 0
-71 -55 -47 -31 0
-72 -56 -48 -32 0
-69 -57 -45 -33 0
-70 -58 -46 -34 0
-71 -59 -47 -35 0
-72 -60 -48 -36 0
-69 -61 -45 -37 0
-70 -62 -46 -38 0
-71 -63 -47 -39 0
-72 -64 -48 -40 0
-69 -65 -45 -41 0
-70 -66 -46 -42 0
-71 -67 -47 -43 0
-72 -68 -48 -44 0
-77 -73 -5 -1 0
-78 -74 -6 -2 0
-79 -75 -7 -3 0
-80 -76 -8 -4 0
-81 -73 -9 -1 0
-82 -74 -10 -2 0
-83 -75 -11 -3 0
-84 -76 -12 -4 0
-81 -77 -9 -5 0
-82 -78 -10 -6 0
-83 -79 -11 -7 0
-84 -80 -12 -8 0
-85 -73 -13 -1 0
-86 -74 -14 -2 0
-87 -75 -15 -3 0
-88 -76 -16 -4 0
-85 -77 -13 -5 0
-86 -78 -14 -6 0
-87 -79 -15 -7 0
-88 -80 -16 -8 0
-85 -81 -13 -9 0
-86 -82 -14 -10 0
-87 -83 -15 -11 0
-88 -84 -16 -12 0
-89 -73 -17 -1 0
-90 -74 -18 -2 0
-91 -75 -19 -3 0
-92 -76 -20 -4 0
-89 -77 -17 -5 0
-90 -78 -18 -6 0
-91 -79 -19 -7 0
-92 -80 -20 -8 0
-89 -81 -17 -9 0
-90 -82 -18 -10 0
-91 -83 -19 -11 0
-92 -84 -20 -12 0
-89 -85 -17 -13 0
-90 -86 -18 -14 0
-91 -87 -19 -15 0
-92 -88 -20 -16 0
-93 -73 -21 -1 0
-94 -74 -22 -2 0
-95 -75 -23 -3 0
-96 -76 -24 -4 0
-93 -77 -21 -5 0
-94 -78 -22 -6 0
-95 -79 -23 -7 0
-96 -80 -24 -8 0
-93 -81 -21 -9 0
-94 -82 -22 -10 0
-95 -83 -23 -11 0
-96 -84 -24 -12 0
-93 -85 -21 -13 0
-94 -86 -22 -14 0
-95 -87 -23 -15 0
-96 -88 -24 -16 0
-93 -89 -21 -17 0
-94 -90 -22 -18 0
-95 -91 -23 -19 0
-96 -92 -24 -20 0
-77 -73 -29 -25 0
-78 -74 -30 -26 0
-79 -75 -31 -27 0
-80 -76 -32 -28 0
-81 -73 -33 -25 0
-82 -74 -34 -26 0
-83 -75 -35 -27 0
-84 -76 -36 -28 0
-81 -77 -33 -29 0
-82 -78 -34 -30 0
-83 -79 -35 -31 0
-84 -80 -36 -32 0
-85 -73 -37 -25 0
-86 -74 -38 -26 0
-87 -75 -39 -27 0
-88 -76 -40 -28 0
-85 -77 -37 -29 0
-86 -78 -38 -30 0
-87 -79 -39 -31 0
-88 -80 -40 -32 0
-85 -81 -37 -33 0
-86 -82 -38 -34 0
-87 -83 -39 -35 0
-88 -84 -40 -36 0
-89 -73 -41 -25 0
-90 -74 -42 -26 0
-91 -75 -43 -27 0
-92 -76 -44 -28 0
-89 -77 -41 -29 0
-90 -78 -42 -30 0
-91 -79 -43 -31 0
-92 -80 -44 -32 0
-89 -81 -41 -33 0
-90 -82 -42 -34 0
-91 -83 -43 -35 0
-92 -84 -44 -36 0
-89 -85 -41 -37 0
-90 -86 -42 -38 0
-91 -87 -43 -39 0
-92 -88 -44 -40 0
-93 -73 -45 -25 0
-94 -74 -46 -26 0
-95 -75 -47 -27 0
-96 -76 -48 -28 0
-93 -77 -45 -29 0
-94 -78 -46 -30 0
-95 -79 -47 -31 0
-96 -80 -48 -32 0
-93 -81 -45 -33 0
-94 -82 -46 -34 0
-95 -83 -47 -35 0
-96 -84 -48 -36 0
-93 -85 -45 -37 0
-94 -86 -46 -38 0
-95 -87 -47 -39 0
-96 -88 -48 -40 0
-93 -89 -45 -41 0
-94 -90 -46 -42 0
-95 -91 -47 -43 0
-96 -92 -48 -44 0
-77 -73 -53 -49 0
-78 -74 -54 -50 0
-79 -75 -55 -51 0
-80 -76 -56 -52 0
-81 -73 -57 -49 0
-82 -74 -58 -50 0
-83 -75 -59 -51 0
-84 -76 -60 -52 0
-81 -77 -57 -53 0
-82 -78 -58 -54 0
-83 -79 -59 -55 0
-84 -80 -60 -56 0
-85 -73 -61 -49 0
-86 -74 -62 -50 0
-87 -75 -63 -51 0
-88 -76 -64 -52 0
-85 -77 -61 -53 0
-86 -78 -62 -54 0
-87 -79 -63 -55 0
-88 -80 -64 -56 0
-85 -81 -61 -57 0
-86 -82 -62 -58 0
-87 -83 -63 -59 0
-88 -84 -64 -60 0
-89 -73 -65 -49 0
-90 -74 -66 -50 0
-91 -75 -67 -51 0
-92 -76 -68 -52 0
-89 -77 -65 -53 0
-90 -78 -66 -54 0
-91 -79 -67 -55 0
-92 -80 -68 -56 0
-89 -81 -65 -57 0
-90 -82 -66 -58 0
-91 -83 -67 -59 0
-92 -84 -68 -60 0
-89 -85 -65 -61 0
-90 -86 -66 -62 0
-91 -87 -67 -63 0
-92 -88 -68 -64 0
-93 -73 -69 -49 0
-94 -74 -70 -50 0
-95 -75 -71 -51 0
-96 -76 -72 -52 0
-93 -77 -69 -53 0
-94 -78 -70 -54 0
-95 -79 -71 -55 0
-96 -80 -72 -56 0
-93 -81 -69 -57 0
-94 -82 -70 -58 0
-95 -83 -71 -59 0
-96 -84 -72 -60 0
-93 -85 -69 -61 0
-94 -86 -70 -62 0
-95 -87 -71 -63 0
-96 -88 -72 -64 0
-93 -89 -69 -65 0
-94 -90 -70 -66 0
-95 -91 -71 -67 0
-96 -92 -72 -68 0
-101 -97 -5 -1 0
-102 -98 -6 -2 0
-103 -99 -7 -3 0
-104 -100 -8 -4 0
-105 -97 -9 -1 0
-106 -98 -10 -2 0
-107 -99 -11 -3 0
-108 -100 -12 -4 0
-105 -101 -9 -5 0
-106 -102 -10 -6 0
-107 -103 -11 -7 0
-108 -104 -12 -8 0
-109 -97 -13 -1 0
-110 -98 -14 -2 0
-111 -99 -15 -3 0
-112 -100 -16 -4 0
-109 -101 -13 -5 0
-110 -102 -14 -6 0
-111 -103 -15 -7 0
-112 -104 -16 -8 0
-109 -105 -13 -9 0
-110 -106 -14 -10 0
-111 -107 -15 -11 0
-112 -108 -16 -12 0
-113 -97 -17 -1 0
-114 -98 -18 -2 0
-115 -99 -19 -3 0
-116 -100 -20 -4 0
-113 -101 -17 -5 0
-114 -102 -18 -6 0
-115 -103 -19 -7 0
-116 -104 -20 -8 0
-113 -105 -17 -9 0
-114 -106 -18 -10 0
-115 -107 -19 -11 0
-116 -108 -20 -12 0
-113 -109 -17 -13 0
-114 -110 -18 -14 0
-115 -111 -19 -15 0
-116 -112 -20 -16 0
-117 -97 -21 -1 0
-118 -98 -22 -2 0
-119 -99 -23 -3 0
-120 -100 -24 -4 0
-117 -101 -21 -5 0
-118 -102 -22 -6 0
-119 -103 -23 -7 0
-120 -104 -24 -8 0
-117 -105 -21 -9 0
-118 -106 -22 -10 0
-119 -107 -23 -11 0
-120 -108 -24 -12 0
-117 -109 -21 -13 0
-118 -110 -22 -14 0
-119 -111 -23 -15 0
-120 -112 -24 -16 0
-117 -113 -21 -17 0
-118 -114 -22 -18 0
-119 -115 -23 -19 0
-120 -116 -24 -20 0
-101 -97 -29 -25 0
-102 -98 -30 -26 0
-103 -99 -31 -27 0
-104 -100 -32 -28 0
-105 -97 -33 -25 0
-106 -98 -34 -26 0
-107 -99 -35 -27 0
-108 -100 -36 -28 0
-105 -101 -33 -29 0
-106 -102 -34 -30 0
-107 -103 -35 -31 0
-108 -104 -36 -32 0
-109 -97 -37 -25 0
-110 -98 -38 -26 0
-111 -99 -39 -27 0
-112 -100 -40 -28 0
-109 -101 -37 -29 0
-110 -102 -38 -30 0
-111 -103 -39 -31 0
-112 -104 -40 -32 0
-109 -105 -37 -33 0
-110 -106 -38 -34 0
-111 -107 -39 -35 0
-112 -108 -40 -36 0
-113 -97 -41 -25 0
-114 -98 -42 -26 0
-115 -99 -43 -27 0
-116 -100 -44 -28 0
-113 -101 -41 -29 0
-114 -102 -42 -30 0
-115 -103 -43 -31 0
-116 -104 -44 -32 0
-113 -105 -41 -33 0
-114 -106 -42 -34 0
-115 -107 -43 -35 0
-116 -108 -44 -36 0
-113 -109 -41 -37 0
-114 -110 -42 -38 0
-115 -111 -43 -39 0
-116 -112 -44 -40 0
-117 -97 -45 -25 0
-118 -98 -46 -26 0
-119 -99 -47 -27 0
-120 -100 -48 -28 0
-117 -101 -45 -29 0
-118 -102 -46 -30 0
-119 -103 -47 -31 0
-120 -104 -48 -32 0
-117 -105 -45 -33 0
-118 -106 -46 -34 0
-119 -107 -47 -35 0
-120 -108 -48 -36 0
-117 -109 -45 -37 0
-118 -110 -46 -38 0
-119 -111 -47 -39 0
-120 -112 -48 -40 0
-117 -113 -45 -41 0
-118 -114 -46 -42 0
-119 -115 -47 -43 0
-120 -116 -48 -44 0
-101 -97 -53 -49 0
-102 -98 -54 -50 0
-103 -99 -55 -51 0
-104 -100 -56 -52 0
-105 -97 -57 -49 0
-106 -98 -58 -50 0
-107 -99 -59 -51 0
-108 -100 -60 -52 0
-105 -101 -57 -53 0
-106 -102 -58 -54 0
-107 -103 -59 -55 0
-108 -104 -60 -56 0
-109 -97 -61 -49 0
-110 -98 -62 -50 0
-111 -99 -63 -51 0
-112 -100 -64 -52 0
-109 -101 -61 -53 0
-110 -102 -62 -54 0
-111 -103 -63 -55 0
-112 -104 -64 -56 0
-109 -105 -61 -57 0
-110 -106 -62 -58 0
-111 -107 -63 -59 0
-112 -108 -64 -60 0
-113 -97 -65 -49 0
-114 -98 -66 -50 0
-115 -99 -67 -51 0
-116 -100 -68 -52 0
-113 -101 -65 -53 0
-114 -102 -66 -54 0
-115 -103 -67 -55 0
-116 -104 -68 -56 0
-113 -105 -65 -57 0
-114 -106 -66 -58 0
-115 -107 -67 -59 0
-116 -108 -68 -60 0
-113 -109 -65 -61 0
-114 -110 -66 -62 0
-115 -111 -67 -63 0
-116 -112 -68 -64 0
-117 -97 -69 -49 0
-118 -98 -70 -50 0
-119 -99 -71 -51 0
-120 -100 -72 -52 0
-117 -101 -69 -53 0
-118 -102 -70 -54 0
-119 -103 -71 -55 0
-120 -104 -72 -56 0
-117 -105 -69 -57 0
-118 -106 -70 -58 0
-119 -107 -71 -59 0
-120 -108 -72 -60 0
-117 -109 -69 -61 0
-118 -110 -70 -62 0
-119 -111 -71 -63 0
-120 -112 -72 -64 0
-117 -113 -69 -65 0
-118 -114 -70 -66 0
-119 -115 -71 -67 0
-120 -116 -72 -68 0
-101 -97 -77 -73 0
-102 -98 -78 -74 0
-103 -99 -79 -75 0
-104 -100 -80 -76 0
-105 -97 -81 -73 0
-106 -98 -82 -74 0
-107 -99 -83 -75 0
-108 -100 -84 -76 0
-105 -101 -81 -77 0
-106 -102 -82 -78 0
-107 -103 -83 -79 0
-108 -104 -84 -80 0
-109 -97 -85 -73 0
-110 -98 -86 -74 0
-111 -99 -87 -75 0
-112 -100 -88 -76 0
-109 -101 -85 -77 0
-110 -102 -86 -78 0
-111 -103 -87 -79 0
-112 -104 -88 -80 0
-109 -105 -85 -81 0
-110 -106 -86 -82 0
-111 -107 -87 -83 0
-112 -108 -88 -84 0
-113 -97 -89 -73 0
-114 -98 -90 -74 0
-115 -99 -91 -75 0
-116 -100 -92 -76 0
-113 -101 -89 -77 0
-114 -102 -90 -78 0
-115 -103 -91 -79 0
-116 -104 -92 -80 0
-113 -105 -89 -81 0
-114 -106 -90 -82 0
-115 -107 -91 -83 0
-116 -108 -92 -84 0
-113 -109 -89 -85 0
-114 -110 -90 -86 0
-115 -111 -91 -87 0
-116 -112 -92 -88 0
-117 -97 -93 -73 0
-118 -98 -94 -74 0
-119 -99 -95 -75 0
-120 -100 -96 -76 0
-117 -101 -93 -77 0
-118 -102 -94 -78 0
-119 -103 -95 -79 0
-120 -104 -96 -80 0
-117 -105 -93 -81 0
-118 -106 -94 -82 0
-119 -107 -95 -83 0
-120 -108 -96 -84 0
-117 -109 -93 -85 0
-118 -110 -94 -86 0
-119 -111 -95 -87 0
-120 -112 -96 -88 0
-117 -113 -93 -89 0
-118 -114 -94 -90 0
-119 -115 -95 -91 0
-120 -116 -96 -92 0
-125 -121 -5 -1 0
-126 -122 -6 -2 0
-127 -123 -7 -3 0
-128 -124 -8 -4 0
-129 -121 -9 -1 0
-130 -122 -10 -2 0
-131 -123 -11 -3 0
-132 -124 -12 -4 0
-129 -125 -9 -5 0
-130 -126 -10 -6 0
-131 -127 -11 -7 0
-132 -128 -12 -8 0
-133 -121 -13 -1 0
-134 -122 -14 -2 0
-135 -123 -15 -3 0
-136 -124 -16 -4 0
-133 -125 -13 -5 0
-134 -126 -14 -6 0
-135 -127 -15 -7 0
-136 -128 -16 -8 0
-133 -129 -13 -9 0
-134 -130 -14 -10 0
-135 -131 -15 -11 0
-136 -132 -16 -12 0
-137 -121 -17 -1 0
-138 -122 -18 -2 0
-139 -123 -19 -3 0
-140 -124 -20 -4 0
-137 -125 -17 -5 0
-138 -126 -18 -6 0
-139 -127 -19 -7 0
-140 -128 -20 -8 0
-137 -129 -17 -9 0
-138 -130 -18 -10 0
-139 -131 -19 -11 0
-140 -132 -20 -12 0
-137 -133 -17 -13 0
-138 -134 -18 -14 0
-139 -135 -19 -15 0
-140 -136 -20 -16 0
-141 -121 -21 -1 0
-142 -122 -22 -2 0
-143 -123 -23 -3 0
-144 -124 -24 -4 0
-141 -125 -21 -5 0
-142 -126 -22 -6 0
-143 -127 -23 -7 0
-144 -128 -24 -8 0
-141 -129 -21 -9 0
-142 -130 -22 -10 0
-143 -131 -23 -11 0
-144 -132 -24 -12 0
-141 -133 -21 -13 0
-142 -134 -22 -14 0
-143 -135 -23 -15 0
-144 -136 -24 -16 0
-141 -137 -21 -17 0
-142 -138 -22 -18 0
-143 -139 -23 -19 0
-144 -140 -24 -20 0
-125 -121 -29 -25 0
-126 -122 -30 -26 0
-127 -123 -31 -27 0
-128 -124 -32 -28 0
-129 -121 -33 -25 0
-130 -122 -34 -26 0
-131 -123 -35 -27 0
-132 -124 -36 -28 0
-129 -125 -33 -29 0
-130 -126 -34 -30 0
-131 -127 -35 -31 0
-132 -128 -36 -32 0
-133 -121 -37 -25 0
-134 -122 -38 -26 0
-135 -123 -39 -27 0
-136 -124 -40 -28 0
-133 -125 -37 -29 0
-134 -126 -38 -30 0
-135 -127 -39 -31 0
-136 -128 -40 -32 0
-133 -129 -37 -33 0
-134 -130 -38 -34 0
-135 -131 -39 -35 0
-136 -132 -40 -36 0
-137 -121 -41 -25 0
-138 -122 -42 -26 0
-139 -123 -43 -27 0
-140 -124 -44 -28 0
-137 -125 -41 -29 0
-138 -126 -42 -30 0
-139 -127 -43 -31 0
-140 -128 -44 -32 0
-137 -129 -41 -33 0
-138 -130 -42 -34 0
-139 -131 -43 -35 0
-140 -132 -44 -36 0
-137 -133 -41 -37 0
-138 -134 -42 -38 0
-139 -135 -43 -39 0
-140 -136 -44 -40 0
-141 -121 -45 -25 0
-142 -122 -46 -26 0
-143 -123 -47 -27 0
-144 -124 -48 -28 0
-141 -125 -45 -29 0
-142 -126 -46 -30 0
-143 -127 -47 -31 0
-144 -128 -48 -32 0
-141 -129 -45 -33 0
-142 -130 -46 -34 0
-143 -131 -47 -35 0
-144 -132 -48 -36 0
-141 -133 -45 -37 0
-142 -134 -46 -38 0
-143 -135 -47 -39 0
-144 -136 -48 -40 0
-141 -137 -45 -41 0
-142 -138 -46 -42 0
-143 -139 -47 -43 0
-144 -140 -48 -44 0
-125 -121 -53 -49 0
-126 -122 -54 -50 0
-127 -123 -55 -51 0
-128 -124 -56 -52 0
-129 -121 -57 -49 0
-130 -122 -58 -50 0
-131 -123 -59 -51 0
-132 -124 -60 -52 0
-129 -125 -57 -53 0
-130 -126 -58 -54 0
-131 -127 -59 -55 0
-132 -128 -60 -56 0
-133 -121 -61 -49 0
-134 -122 -62 -50 0
-135 -123 -63 -51 0
-136 -124 -64 -52 0
-133 -125 -61 -53 0
-134 -126 -62 -54 0
-135 -127 -63 -55 0
-136 -128 -64 -56 0
-133 -129 -61 -57 0
-134 -130 -62 -58 0
-135 -131 -63 -59 0
-136 -132 -64 -60 0
-137 -121 -65 -49 0
-138 -122 -66 -50 0
-139 -123 -67 -51 0
-140 -124 -68 -52 0
-137 -125 -65 -53 0
-138 -126 -66 -54 0
-139 -127 -67 -55 0
-140 -128 -68 -56 0
-137 -129 -65 -57 0
-138 -130 -66 -58 0
-139 -131 -67 -59 0
-140 -132 -68 -60 0
-137 -133 -65 -61 0
-138 -134 -66 -62 0
-139 -135 -67 -63 0
-140 -136 -68 -64 0
-141 -121 -69 -49 0
-142 -122 -70 -50 0
-143 -123 -71 -51 0
-144 -124 -72 -52 0
-141 -125 -69 -53 0
-142 -126 -70 -54 0
-143 -127 -71 -55 0
-144 -128 -72 -56 0
-141 -129 -69 -57 0
-142 -130 -70 -58 0
-143 -131 -71 -59 0
-144 -132 -72 -60 0
-141 -133 -69 -61 0
-142 -134 -70 -62 0
-143 -135 -71 -63 0
-144 -136 -72 -64 0
-141 -137 -69 -65 0
-142 -138 -70 -66 0
-143 -139 -71 -67 0
-144 -140 -72 -68 0
-125 -121 -77 -73 0
-126 -122 -78 -74 0
-127 -123 -79 -75 0
-128 -124 -80 -76 0
-129 -121 -81 -73 0
-130 -122 -82 -74 0
-131 -123 -83 -75 0
-132 -124 -84 -76 0
-129 -125 -81 -77 0
-130 -126 -82 -78 0
-131 -127 -83 -79 0
-132 -128 -84 -80 0
-133 -121 -85 -73 0
-134 -122 -86 -74 0
-135 -123 -87 -75 0
-136 -124 -88 -76 0
-133 -125 -85 -77 0
-134 -126 -86 -78 0
-135 -127 -87 -79 0
-136 -128 -88 -80 0
-133 -129 -85 -81 0
-134 -130 -86 -82 0
-135 -131 -87 -83 0
-136 -132 -88 -84 0
-137 -121 -89 -73 0
-138 -122 -90 -74 0
-139 -123 -91 -75 0
-140 -124 -92 -76 0
-137 -125 -89 -77 0
-138 -126 -90 -78 0
-139 -127 -91 -79 0
-140 -128 -92 -80 0
-137 -129 -89 -81 0
-138 -130 -90 -82 0
-139 -131 -91 -83 0
-140 -132 -92 -84 0
-137 -133 -89 -85 0
-138 -134 -90 -86 0
-139 -135 -91 -87 0
-140 -136 -92 -88 0
-141 -121 -93 -73 0
-142 -122 -94 -74 0
-143 -123 -95 -75 0
-144 -124 -96 -76 0
-141 -125 -93 -77 0
-142 -126 -94 -78 0
-143 -127 -95 -79 0
-144 -128 -96 -80 0
-141 -129 -93 -81 0
-142 -130 -94 -82 0
-143 -131 -95 -83 0
-144 -132 -96 -84 0
-141 -133 -93 -85 0
-142 -134 -94 -86 0
-143 -135 -95 -87 0
-144 -136 -96 -88 0
-141 -137 -93 -89 0
-142 -138 -94 -90 0
-143 -139 -95 -91 0
-144 -140 -96 -92 0
-125 -121 -101 -97 0
-126 -122 -102 -98 0
-127 -123 -103 -99 0
-128 -124 -104 -100 0
-129 -121 -105 -97 0
-130 -122 -106 -98 0
-131 -123 -107 -99 0
-132 -124 -108 -100 0
-129 -125 -105 -101 0
-130 -126 -106 -102 0
-131 -127 -107 -103 0
-132 -128 -108 -104 0
-133 -121 -109 -97 0
-134 -122 -110 -98 0
-135 -123 -111 -99 0
-136 -124 -112 -100 0
-133 -125 -109 -101 0
-134 -126 -110 -102 0
-135 -127 -111 -103 0
-136 -128 -112 -104 0
-133 -129 -109 -105 0
-134 -130 -110 -106 0
-135 -131 -111 -107 0
-136 -132 -112 -108 0
-137 -121 -113 -97 0
-138 -122 -114 -98 0
-139 -123 -115 -99 0
-140 -124 -116 -100 0
-137 -125 -113 -101 0
-138 -126 -114 -102 0
-139 -127 -115 -103 0
-140 -128 -116 -104 0
-137 -129 -113 -105 0
-138 -130 -114 -106 0
-139 -131 -115 -107 0
-140 -132 -116 -108 0
-137 -133 -113 -109 0
-138 -134 -114 -110 0
-139 -135 -115 -111 0
-140 -136 -116 -112 0
-141 -121 -117 -97 0
-142 -122 -118 -98 0
-143 -123 -119 -99 0
-144 -124 -120 -100 0
-141 -125 -117 -101 0
-142 -126 -118 -102 0
-143 -127 -119 -103 0
-144 -128 -120 -104 0
-141 -129 -117 -105 0
-142 -130 -118 -106 0
-143 -131 -119 -107 0
-144 -132 -120 -108 0
-141 -133 -117 -109 0
-142 -134 -118 -110 0
-143 -135 -119 -111 0
-144 -136 -120 -112 0
-141 -137 -117 -113 0
-142 -138 -118 -114 0
-143 -139 -119 -115 0
-144 -140 -120 -116 0
-149 -145 -5 -1 0
-150 -146 -6 -2 0
-151 -147 -7 -3 0
-152 -148 -8 -4 0
-153 -145 -9 -1 0
-154 -146 -10 -2 0
-155 -147 -11 -3 0
-156 -148 -12 -4 0
-153 -149 -9 -5 0
-154 -150 -10 -6 0
-155 -151 -11 -7 0
-156 -152 -12 -8 0
-157 -145 -13 -1 0
-158 -146 -14 -2 0
-159 -147 -15 -3 0
-160 -148 -16 -4 0
-157 -149 -13 -5 0
-158 -150 -14 -6 0
-159 -151 -15 -7 0
-160 -152 -16 -8 0
-157 -153 -13 -9 0
-158 -154 -14 -10 0
-159 -155 -15 -11 0
-160 -156 -16 -12 0
-161 -145 -17 -1 0
-162 -146 -18 -2 0
-163 -147 -19 -3 0
-164 -148 -20 -4 0
-161 -149 -17 -5 0
-162 -150 -18 -6 0
-163 -151 -19 -7 0
-164 -152 -20 -8 0
-161 -153 -17 -9 0
-162 -154 -18 -10 0
-163 -155 -19 -11 0
-164 -156 -20 -12 0
-161 -157 -17 -13 0
-162 -158 -18 -14 0
-163 -159 -19 -15 0
-164 -160 -20 -16 0
-165 -145 -21 -1 0
-166 -146 -22 -2 0
-167 -147 -23 -3 0
-168 -148 -24 -4 0
-165 -149 -21 -5 0
-166 -150 -22 -6 0
-167 -151 -23 -7 0
-168 -152 -24 -8 0
-165 -153 -21 -9 0
-166 -154 -22 -10 0
-167 -155 -23 -11 0
-168 -156 -24 -12 0
-165 -157 -21 -13 0
-166 -158 -22 -14 0
-167 -159 -23 -15 0
-168 -160 -24 -16 0
-165 -161 -21 -17 0
-166 -162 -22 -18 0
-167 -163 -23 -19 0
-168 -164 -24 -20 0
-149 -145 -29 -25 0
-150 -146 -30 -26 0
-151 -147 -31 -27 0
-152 -148 -32 -28 0
-153 -145 -33 -25 0
-154 -146 -34 -26 0
-155 -147 -35 -27 0
-156 -148 -36 -28 0
-153 -149 -33 -29 0
-154 -150 -34 -30 0
-155 -151 -35 -31 0
-156 -152 -36 -32 0
-157 -145 -37 -25 0
-158 -146 -38 -26 0
-159 -147 -39 -27 0
-160 -148 -40 -28 0
-157 -149 -37 -29 0
-158 -150 -38 -30 0
-159 -151 -39 -31 0
-160 -152 -40 -32 0
-157 -153 -37 -33 0
-158 -154 -38 -34 0
-159 -155 -39 -35 0
-160 -156 -40 -36 0
-161 -145 -41 -25 0
-162 -146 -42 -26 0
-163 -147 -43 -27 0
-164 -148 -44 -28 0
-161 -149 -41 -29 0
-162 -150 -42 -30 0
-163 -151 -43 -31 0
-164 -152 -44 -32 0
-161 -153 -41 -33 0
-162 -154 -42 -34 0
-163 -155 -43 -35 0
-164 -156 -44 -36 0
-161 -157 -41 -37 0
-162 -158 -42 -38 0
-163 -159 -43 -39 0
-164 -160 -44 -40 0
-165 -145 -45 -25 0
-166 -146 -46 -26 0
-167 -147 -47 -27 0
-168 -148 -48 -28 0
-165 -149 -45 -29 0
-166 -150 -46 -30 0
-167 -151 -47 -31 0
-168 -152 -48 -32 0
-165 -153 -45 -33 0
-166 -154 -46 -34 0
-167 -155 -47 -35 0
-168 -156 -48 -36 0
-165 -157 -45 -37 0
-166 -158 -46 -38 0
-167 -159 -47 -39 0
-168 -160 -48 -40 0
-165 -161 -45 -41 0
-166 -162 -46 -42 0
-167 -163 -47 -43 0
-168 -164 -48 -44 0
-149 -145 -53 -49 0
-150 -146 -54 -50 0
-151 -147 -55 -51 0
-152 -148 -56 -52 0
-153 -145 -57 -49 0
-154 -146 -58 -50 0
-155 -147 -59 -51 0
-156 -148 -60 -52 0
-153 -149 -57 -53 0
-154 -150 -58 -54 0
-155 -151 -59 -55 0
-156 -152 -60 -56 0
-157 -145 -61 -49 0
-158 -146 -62 -50 0
-159 -147 -63 -51 0
-160 -148 -64 -52 0
-157 -149 -61 -53 0
-158 -150 -62 -54 0
-159 -151 -63 -55 0
-160 -152 -64 -56 0
-157 -153 -61 -57 0
-158 -154 -62 -58 0
-159 -155 -63 -59 0
-160 -156 -64 -60 0
-161 -145 -65 -49 0
-162 -146 -66 -50 0
-163 -147 -67 -51 0
-164 -148 -68 -52 0
-161 -149 -65 -53 0
-162 -150 -66 -54 0
-163 -151 -67 -55 0
-164 -152 -68 -56 0
-161 -153 -65 -57 0
-162 -154 -66 -58 0
-163 -155 -67 -59 0
-164 -156 -68 -60 0
-161 -157 -65 -61 0
-162 -158 -66 -62 0
-163 -159 -67 -63 0
-164 -160 -68 -64 0
-165 -145 -69 -49 0
-166 -146 -70 -50 0
-167 -147 -71 -51 0
-168 -148 -72 -52 0
-165 -149 -69 -53 0
-166 -150 -70 -54 0
-167 -151 -71 -55 0
-168 -152 -72 -56 0
-165 -153 -69 -57 0
-166 -154 -70 -58 0
-167 -155 -71 -59 0
-168 -156 -72 -60 0
-165 -157 -69 -61 0
-166 -158 -70 -62 0
-167 -159 -71 -63 0
-168 -160 -72 -64 0
-165 -161 -69 -65 0
-166 -162 -70 -66 0
-167 -163 -71 -67 0
-168 -164 -72 -68 0
-149 -145 -77 -73 0
-150 -146 -78 -74 0
-151 -147 -79 -75 0
-152 -148 -80 -76 0
-153 -145 -81 -73 0
-154 -146 -82 -74 0
-155 -147 -83 -75 0
-156 -148 -84 -76 0
-153 -149 -81 -77 0
-154 -150 -82 -78 0
-155 -151 -83 -79 0
-156 -152 -84 -80 0
-157 -145 -85 -73 0
-158 -146 -86 -74 0
-159 -147 -87 -75 0
-160 -148 -88 -76 0
-157 -149 -85 -77 0
-158 -150 -86 -78 0
-159 -151 -87 -79 0
-160 -152 -88 -80 0
-157 -153 -85 -81 0
-158 -154 -86 -82 0
-159 -155 -87 -83 0
-160 -156 -88 -84 0
-161 -145 -89 -73 0
-162 -146 -90 -74 0
-163 -147 -91 -75 0
-164 -148 -92 -76 0
-161 -149 -89 -77 0
-162 -150 -90 -78 0
-163 -151 -91 -79 0
-164 -152 -92 -80 0
-161 -153 -89 -81 0
-162 -154 -90 -82 0
-163 -155 -91 -83 0
-164 -156 -92 -84 0
-161 -157 -89 -85 0
-162 -158 -90 -86 0
-163 -159 -91 -87 0
-164 -160 -92 -88 0
-165 -145 -93 -73 0
-166 -146 -94 -74 0
-167 -147 -95 -75 0
-168 -148 -96 -76 0
-165 -149 -93 -77 0
-166 -150 -94 -78 0
-167 -151 -95 -79 0
-168 -152 -96 -80 0
-165 -153 -93 -81 0
-166 -154 -94 -82 0
-167 -155 -95 -83 0
-168 -156 -96 -84 0
-165 -157 -93 -85 0
-166 -158 -94 -86 0
-167 -159 -95 -87 0
-168 -160 -96 -88 0
-165 -161 -93 -89 0
-166 -162 -94 -90 0
-167 -163 -95 -91 0
-168 -164 -96 -92 0
-149 -145 -101 -97 0
-150 -146 -102 -98 0
-151 -147 -103 -99 0
-152 -148 -104 -100 0
-153 -145 -105 -97 0
-154 -146 -106 -98 0
-155 -147 -107 -99 0
-156 -148 -108 -100 0
-153 -149 -105 -101 0
-154 -150 -106 -102 0
-155 -151 -107 -103 0
-156 -152 -108 -104 0
-157 -145 -109 -97 0
-158 -146 -110 -98 0
-159 -147 -111 -99 0
-160 -148 -112 -100 0
-157 -149 -109 -101 0
-158 -150 -110 -102 0
-159 -151 -111 -103 0
-160 -152 -112 -104 0
-157 -153 -109 -105 0
-158 -154 -110 -106 0
-159 -155 -111 -107 0
-160 -156 -112 -108 0
-161 -145 -113 -97 0
-162 -146 -114 -98 0
-163 -147 -115 -99 0
-164 -148 -116 -100 0
-161 -149 -113 -101 0
-162 -150 -114 -102 0
-163 -151 -115 -103 0
-164 -152 -116 -104 0
-161 -153 -113 -105 0
-162 -154 -114 -106 0
-163 -155 -115 -107 0
-164 -156 -116 -108 0
-161 -157 -113 -109 0
-162 -158 -114 -110 0
-163 -159 -115 -111 0
-164 -160 -116 -112 0
-165 -145 -117 -97 0
-166 -146 -118 -98 0
-167 -147 -119 -99 0
-168 -148 -120 -100 0
-165 -149 -117 -101 0
-166 -150 -118 -102 0
-167 -151 -119 -103 0
-168 -152 -120 -104 0
-165 -153 -117 -105 0
-166 -154 -118 -106 0
-167 -155 -119 -107 0
-168 -156 -120 -108 0
-165 -157 -117 -109 0
-166 -158 -118 -110 0
-167 -159 -119 -111 0
-168 -160 -120 -112 0
-165 -161 -117 -113 0
-166 -162 -118 -114 0
-167 -163 -119 -115 0
-168 -164 -120 -116 0
-149 -145 -125 -121 0
-150 -146 -126 -122 0
-151 -147 -127 -123 0
-152 -148 -128 -124 0
-153 -145 -129 -121 0
-154 -146 -130 -122 0
-155 -147 -131 -123 0
-156 -148 -132 -124 0
-153 -149 -129 -125 0
-154 -150 -130 -126 0
-155 -151 -131 -127 0
-156 -152 -132 -128 0
-157 -145 -133 -121 0
-158 -146 -134 -122 0
-159 -147 -135 -123 0
-160 -148 -136 -124 0
-157 -149 -133 -125 0
-158 -150 -134 -126 0
-159 -151 -135 -127 0
-160 -152 -136 -128 0
-157 -153 -133 -129 0
-158 -154 -134 -130 0
-159 -155 -135 -131 0
-160 -156 -136 -132 0
-161 -145 -137 -121 0
-162 -146 -138 -122 0
-163 -147 -139 -123 0
-164 -148 -140 -124 0
-161 -149 -137 -125 0
-162 -150 -138 -126 0
-163 -151 -139 -127 0
-164 -152 -140 -128 0
-161 -153 -137 -129 0
-162 -154 -138 -130 0
-163 -155 -139 -131 0
-164 -156 -140 -132 0
-161 -157 -137 -133 0
-162 -158 -138 -134 0
-163 -159 -139 -135 0
-164 -160 -140 -136 0
-165 -145 -141 -121 0
-166 -146 -142 -122 0
-167 -147 -143 -123 0
-168 -148 -144 -124 0
-165 -149 -141 -125 0
-166 -150 -142 -126 0
-167 -151 -143 -127 0
-168 -152 -144 -128 0
-165 -153 -141 -129 0
-166 -154 -142 -130 0
-167 -155 -143 -131 0
-168 -156 -144 -132 0
-165 -157 -141 -133 0
-166 -158 -142 -134 0
-167 -159 -143 -135 0
-168 -160 -144 -136 0
-165 -161 -141 -137 0
-166 -162 -142 -138 0
-167 -163 -143 -139 0
-168 -164 -144 -140 0
